4 
5  20 32 43 
6  02 10 18 27 37 45 53 
7  00 09 16 24 31 39 46 54 
8  01 09 16 24 31 39 46 54 
9  01 09 16 24 31 38 46 53 
10  01 08 16 23 31 38 46 53 
11  01 08 16 23 31 38 46 53 
12  01 08 16 23 31 38 46 53 
13  01 08 16 23 31 38 46 53 
14  01 08 16 23 31 38 46 53 
15  01 08 16 23 31 38 46 53 
16  01 08 16 23 31 38 46 53 
17  01 08 16 23 31 38 46 53 
18  01 08 16 23 31 38 46 53 
19  01 08 16 23 31 38 46 53 
20  01 07 15 22 30 39 54 
21  09 24 39 54 
22  09 23 38 54 
23  08 20 
0 
